7
2147483647 71 2 28 34 31 51 
71 2147483647 9 54 2 28 46 
2 9 2147483647 81 14 88 57 
28 54 81 2147483647 73 29 6 
34 2 14 73 2147483647 46 64 
31 28 88 29 46 2147483647 51 
51 46 57 6 64 51 2147483647 
